solution status: optimal solution found
objective value:                     192633.134063545
d11(0,0)                                            1 	(obj:0)
d11(1,1)                                            1 	(obj:0)
d11(3,7)                                            1 	(obj:0)
d11(3,9)                                            1 	(obj:0)
d11(3,11)                                           1 	(obj:0)
d11(3,13)                                           1 	(obj:0)
d11(4,15)                                           1 	(obj:0)
d11(4,17)                                           1 	(obj:0)
d11(4,18)                                           1 	(obj:0)
d11(4,19)                                           1 	(obj:0)
d11(4,21)                                           1 	(obj:0)
d11(4,23)                                           1 	(obj:0)
d11(4,25)                                           1 	(obj:0)
d11(4,26)                                           1 	(obj:0)
d11(4,27)                                           1 	(obj:0)
d11(4,29)                                           1 	(obj:0)
d11(5,31)                                           1 	(obj:0)
d11(5,32)                                           1 	(obj:0)
d11(5,33)                                           1 	(obj:0)
d11(5,34)                                           1 	(obj:0)
d11(5,35)                                           1 	(obj:0)
d11(5,36)                                           1 	(obj:0)
d11(5,37)                                           1 	(obj:0)
d11(5,38)                                           1 	(obj:0)
d11(5,39)                                           1 	(obj:0)
d11(5,40)                                           1 	(obj:0)
d11(5,41)                                           1 	(obj:0)
d11(5,43)                                           1 	(obj:0)
d11(5,44)                                           1 	(obj:0)
d11(5,45)                                           1 	(obj:0)
d11(5,46)                                           1 	(obj:0)
d11(5,47)                                           1 	(obj:0)
d11(5,48)                                           1 	(obj:0)
d11(5,49)                                           1 	(obj:0)
d11(5,50)                                           1 	(obj:0)
d11(5,51)                                           1 	(obj:0)
d11(5,52)                                           1 	(obj:0)
d11(5,53)                                           1 	(obj:0)
d11(5,54)                                           1 	(obj:0)
d11(5,55)                                           1 	(obj:0)
d11(5,56)                                           1 	(obj:0)
d11(5,57)                                           1 	(obj:0)
d11(5,58)                                           1 	(obj:0)
d11(5,59)                                           1 	(obj:0)
d11(5,60)                                           1 	(obj:0)
d11(5,61)                                           1 	(obj:0)
d11(5,62)                                           1 	(obj:0)
d11(6,63)                                           1 	(obj:0)
d11(6,65)                                           1 	(obj:0)
d11(6,67)                                           1 	(obj:0)
d11(6,69)                                           1 	(obj:0)
d11(6,71)                                           1 	(obj:0)
d11(6,75)                                           1 	(obj:0)
d11(6,77)                                           1 	(obj:0)
d11(6,79)                                           1 	(obj:0)
d11(6,81)                                           1 	(obj:0)
d11(6,83)                                           1 	(obj:0)
d11(6,85)                                           1 	(obj:0)
d11(6,87)                                           1 	(obj:0)
d11(6,89)                                           1 	(obj:0)
d11(6,91)                                           1 	(obj:0)
d11(6,95)                                           1 	(obj:0)
d11(6,97)                                           1 	(obj:0)
d11(6,99)                                           1 	(obj:0)
d11(6,101)                                          1 	(obj:0)
d11(6,103)                                          1 	(obj:0)
d11(6,105)                                          1 	(obj:0)
d11(6,107)                                          1 	(obj:0)
d11(6,111)                                          1 	(obj:0)
d11(6,113)                                          1 	(obj:0)
d11(6,115)                                          1 	(obj:0)
d11(6,117)                                          1 	(obj:0)
d11(6,119)                                          1 	(obj:0)
d11(6,121)                                          1 	(obj:0)
d11(6,125)                                          1 	(obj:0)
d12(1,2)                                            1 	(obj:0)
d12(2,4)                                            1 	(obj:0)
d12(2,6)                                            1 	(obj:0)
d12(3,8)                                            1 	(obj:0)
d12(3,10)                                           1 	(obj:0)
d12(3,12)                                           1 	(obj:0)
d12(3,14)                                           1 	(obj:0)
d12(6,64)                                           1 	(obj:0)
d12(6,66)                                           1 	(obj:0)
d12(6,68)                                           1 	(obj:0)
d12(6,70)                                           1 	(obj:0)
d12(6,72)                                           1 	(obj:0)
d12(6,74)                                           1 	(obj:0)
d12(6,76)                                           1 	(obj:0)
d12(6,78)                                           1 	(obj:0)
d12(6,80)                                           1 	(obj:0)
d12(6,82)                                           1 	(obj:0)
d12(6,84)                                           1 	(obj:0)
d12(6,86)                                           1 	(obj:0)
d12(6,88)                                           1 	(obj:0)
d12(6,90)                                           1 	(obj:0)
d12(6,92)                                           1 	(obj:0)
d12(6,94)                                           1 	(obj:0)
d12(6,96)                                           1 	(obj:0)
d12(6,98)                                           1 	(obj:0)
d12(6,100)                                          1 	(obj:0)
d12(6,102)                                          1 	(obj:0)
d12(6,104)                                          1 	(obj:0)
d12(6,106)                                          1 	(obj:0)
d12(6,108)                                          1 	(obj:0)
d12(6,110)                                          1 	(obj:0)
d12(6,112)                                          1 	(obj:0)
d12(6,114)                                          1 	(obj:0)
d12(6,116)                                          1 	(obj:0)
d12(6,118)                                          1 	(obj:0)
d12(6,120)                                          1 	(obj:0)
d12(6,122)                                          1 	(obj:0)
d12(6,124)                                          1 	(obj:0)
d12(6,126)                                          1 	(obj:0)
d21(4,15)                                           1 	(obj:0)
d21(5,31)                                           1 	(obj:0)
d21(5,32)                                           1 	(obj:0)
d21(5,33)                                           1 	(obj:0)
d21(5,34)                                           1 	(obj:0)
d21(5,35)                                           1 	(obj:0)
d21(5,36)                                           1 	(obj:0)
d21(5,37)                                           1 	(obj:0)
d21(5,39)                                           1 	(obj:0)
d21(5,40)                                           1 	(obj:0)
d21(5,41)                                           1 	(obj:0)
d21(5,43)                                           1 	(obj:0)
d21(5,47)                                           1 	(obj:0)
d21(5,48)                                           1 	(obj:0)
d21(5,49)                                           1 	(obj:0)
d21(5,51)                                           1 	(obj:0)
d21(5,55)                                           1 	(obj:0)
d21(6,63)                                           1 	(obj:0)
d21(6,64)                                           1 	(obj:0)
d21(6,65)                                           1 	(obj:0)
d21(6,66)                                           1 	(obj:0)
d21(6,67)                                           1 	(obj:0)
d21(6,68)                                           1 	(obj:0)
d21(6,69)                                           1 	(obj:0)
d21(6,70)                                           1 	(obj:0)
d21(6,71)                                           1 	(obj:0)
d21(6,72)                                           1 	(obj:0)
d21(6,73)                                           1 	(obj:0)
d21(6,74)                                           1 	(obj:0)
d21(6,75)                                           1 	(obj:0)
d21(6,76)                                           1 	(obj:0)
d21(6,79)                                           1 	(obj:0)
d21(6,80)                                           1 	(obj:0)
d21(6,81)                                           1 	(obj:0)
d21(6,82)                                           1 	(obj:0)
d21(6,83)                                           1 	(obj:0)
d21(6,84)                                           1 	(obj:0)
d21(6,85)                                           1 	(obj:0)
d21(6,87)                                           1 	(obj:0)
d21(6,88)                                           1 	(obj:0)
d21(6,89)                                           1 	(obj:0)
d21(6,91)                                           1 	(obj:0)
d21(6,95)                                           1 	(obj:0)
d21(6,96)                                           1 	(obj:0)
d21(6,97)                                           1 	(obj:0)
d21(6,98)                                           1 	(obj:0)
d21(6,99)                                           1 	(obj:0)
d21(6,100)                                          1 	(obj:0)
d21(6,103)                                          1 	(obj:0)
d21(6,104)                                          1 	(obj:0)
d21(6,105)                                          1 	(obj:0)
d21(6,107)                                          1 	(obj:0)
d21(6,111)                                          1 	(obj:0)
d21(6,112)                                          1 	(obj:0)
d21(6,113)                                          1 	(obj:0)
d21(6,115)                                          1 	(obj:0)
d21(6,119)                                          1 	(obj:0)
y2(6,100)                            1385.48851144895 	(obj:0)
y2(6,102)                            1385.48851144895 	(obj:0)
y2(6,104)                            1385.48851144895 	(obj:0)
y2(6,106)                            1385.48851144895 	(obj:0)
y2(6,108)                            1385.48851144895 	(obj:0)
y2(6,110)                            1385.48851144895 	(obj:0)
y2(6,112)                            1385.48851144895 	(obj:0)
y2(6,114)                            1385.48851144895 	(obj:0)
y2(6,116)                            1385.48851144895 	(obj:0)
y2(6,118)                            1385.48851144895 	(obj:0)
y2(6,120)                            1385.48851144895 	(obj:0)
y2(6,122)                            1385.48851144895 	(obj:0)
y2(6,124)                            1385.48851144895 	(obj:0)
y2(6,126)                            1385.48851144895 	(obj:0)
STE(1,1)                             12944.5850654911 	(obj:0)
STE(0,0)                                        14175 	(obj:0)
STE(1,2)                             14271.4146324222 	(obj:0)
STE(2,3)                             11810.5850654911 	(obj:0)
STE(2,4)                             13126.7991513677 	(obj:0)
STE(2,5)                             13137.4146324222 	(obj:0)
STE(2,6)                             14453.6287182987 	(obj:0)
STE(3,7)                             10580.1701330689 	(obj:0)
STE(3,8)                             11906.9996997703 	(obj:0)
STE(3,9)                             11896.3842189454 	(obj:0)
STE(3,10)                            13223.2137856468 	(obj:0)
STE(3,11)                                  11906.9997 	(obj:0)
STE(3,12)                            13233.8292667013 	(obj:0)
STE(3,13)                            13223.2137858765 	(obj:0)
STE(3,14)                            14550.0433525778 	(obj:0)
STE(4,15)                            7787.92023418011 	(obj:0)
STE(4,16)                            9446.17013306894 	(obj:0)
STE(4,17)                            9114.74980088143 	(obj:0)
STE(4,18)                            10772.9996998042 	(obj:0)
STE(4,19)                            9104.13432005661 	(obj:0)
STE(4,20)                            10762.3842189454 	(obj:0)
STE(4,21)                            10430.9638867579 	(obj:0)
STE(4,22)                            12089.2137856468 	(obj:0)
STE(4,23)                            9114.74980111117 	(obj:0)
STE(4,24)                                  10772.9997 	(obj:0)
STE(4,25)                            10441.5793678125 	(obj:0)
STE(4,26)                            12099.8292667013 	(obj:0)
STE(4,27)                            10430.9638869877 	(obj:0)
STE(4,28)                            12089.2137858765 	(obj:0)
STE(4,29)                             11757.793453689 	(obj:0)
STE(4,30)                            13416.0433525778 	(obj:0)
STE(5,31)                            4995.67033529126 	(obj:0)
STE(5,32)                            6653.92023418008 	(obj:0)
STE(5,33)                            6653.92023418009 	(obj:0)
STE(5,34)                            8312.17013306891 	(obj:0)
STE(5,35)                            6322.49990199258 	(obj:0)
STE(5,36)                            7980.74980088143 	(obj:0)
STE(5,37)                            7980.74980091535 	(obj:0)
STE(5,38)                                   9638.9997 	(obj:0)
STE(5,39)                            6311.88442116777 	(obj:0)
STE(5,40)                            7970.13432005661 	(obj:0)
STE(5,41)                             7970.1343200566 	(obj:0)
STE(5,42)                            9628.38421894544 	(obj:0)
STE(5,43)                            7638.71398786909 	(obj:0)
STE(5,44)                             9296.9638867579 	(obj:0)
STE(5,45)                            9296.96388675791 	(obj:0)
STE(5,46)                            10955.2137856467 	(obj:0)
STE(5,47)                            6322.49990222233 	(obj:0)
STE(5,48)                            7980.74980111117 	(obj:0)
STE(5,49)                            7980.74980111115 	(obj:0)
STE(5,50)                                   9638.9997 	(obj:0)
STE(5,51)                            7649.32946892365 	(obj:0)
STE(5,52)                            9307.57936781256 	(obj:0)
STE(5,53)                            9307.57936781247 	(obj:0)
STE(5,54)                            10965.8292667013 	(obj:0)
STE(5,55)                            7638.71398809884 	(obj:0)
STE(5,56)                            9296.96388698774 	(obj:0)
STE(5,57)                            9296.96388698766 	(obj:0)
STE(5,58)                            10955.2137858765 	(obj:0)
STE(5,59)                            8965.54355480016 	(obj:0)
STE(5,60)                            10623.7934536891 	(obj:0)
STE(5,61)                             10623.793453689 	(obj:0)
STE(5,62)                            12282.0433525778 	(obj:0)
STE(6,63)                            3861.67033529126 	(obj:0)
STE(6,64)                            5177.88442116777 	(obj:0)
STE(6,65)                            5519.92023418008 	(obj:0)
STE(6,66)                            6836.13432005659 	(obj:0)
STE(6,67)                            5519.92023418009 	(obj:0)
STE(6,68)                             6836.1343200566 	(obj:0)
STE(6,69)                            7178.17013306891 	(obj:0)
STE(6,70)                            8494.38421894541 	(obj:0)
STE(6,71)                            5188.49990199258 	(obj:0)
STE(6,72)                            6504.71398786909 	(obj:0)
STE(6,73)                            6846.74980088143 	(obj:0)
STE(6,74)                            8162.96388675793 	(obj:0)
STE(6,75)                            6846.74980091535 	(obj:0)
STE(6,76)                            8162.96388679186 	(obj:0)
STE(6,77)                                   8504.9997 	(obj:0)
STE(6,78)                            9821.21378587651 	(obj:0)
STE(6,79)                            5177.88442116777 	(obj:0)
STE(6,80)                            6494.09850704427 	(obj:0)
STE(6,81)                            6836.13432005661 	(obj:0)
STE(6,82)                            8152.34840593312 	(obj:0)
STE(6,83)                             6836.1343200566 	(obj:0)
STE(6,84)                             8152.3484059331 	(obj:0)
STE(6,85)                            8494.38421894544 	(obj:0)
STE(6,86)                            9810.59830482195 	(obj:0)
STE(6,87)                            6504.71398786909 	(obj:0)
STE(6,88)                            7820.92807374559 	(obj:0)
STE(6,89)                             8162.9638867579 	(obj:0)
STE(6,90)                            9479.17797263441 	(obj:0)
STE(6,91)                            8162.96388675791 	(obj:0)
STE(6,92)                            9479.17797263442 	(obj:0)
STE(6,93)                            9821.21378564673 	(obj:0)
STE(6,94)                            11137.4278715232 	(obj:0)
STE(6,95)                            5188.49990222233 	(obj:0)
STE(6,96)                            6504.71398809883 	(obj:0)
STE(6,97)                            6846.74980111117 	(obj:0)
STE(6,98)                            8162.96388698768 	(obj:0)
STE(6,99)                            6846.74980111116 	(obj:0)
STE(6,100)                           8162.96388698766 	(obj:0)
STE(6,101)                                  8504.9997 	(obj:0)
STE(6,102)                           9821.21378587651 	(obj:0)
STE(6,103)                           6515.32946892365 	(obj:0)
STE(6,104)                           7831.54355480016 	(obj:0)
STE(6,105)                           8173.57936781256 	(obj:0)
STE(6,106)                           9489.79345368906 	(obj:0)
STE(6,107)                           8173.57936781247 	(obj:0)
STE(6,108)                           9489.79345368897 	(obj:0)
STE(6,109)                           9831.82926670128 	(obj:0)
STE(6,110)                           11148.0433525778 	(obj:0)
STE(6,111)                           6504.71398809884 	(obj:0)
STE(6,112)                           7820.92807397534 	(obj:0)
STE(6,113)                           8162.96388698774 	(obj:0)
STE(6,114)                           9479.17797286425 	(obj:0)
STE(6,115)                           8162.96388698766 	(obj:0)
STE(6,116)                           9479.17797286417 	(obj:0)
STE(6,117)                           9821.21378587648 	(obj:0)
STE(6,118)                            11137.427871753 	(obj:0)
STE(6,119)                           7831.54355480016 	(obj:0)
STE(6,120)                           9147.75764067666 	(obj:0)
STE(6,121)                           9489.79345368906 	(obj:0)
STE(6,122)                           10806.0075395656 	(obj:0)
STE(6,123)                           9489.79345368898 	(obj:0)
STE(6,124)                           10806.0075395655 	(obj:0)
STE(6,125)                           11148.0433525778 	(obj:0)
STE(6,126)                           12464.2574384543 	(obj:0)
BG(5)                                723.522421037851 	(obj:10)
WB(1)                                 497.59750928932 	(obj:0)
AVE(1)                               3259.55177567504 	(obj:0)
WB(2)                                3259.55588804169 	(obj:0)
AVE(2)                               3259.55588804169 	(obj:0)
WB(3)                                817.407387622241 	(obj:0)
AVE(3)                               3579.36165209166 	(obj:0)
AVE(4)                               3579.36576445831 	(obj:0)
AVE(5)                               3472.77007794174 	(obj:0)
WB(6)                                 372.95195629129 	(obj:0)
AVE(6)                                3046.3618950668 	(obj:0)
WG(1)                                2761.95426638572 	(obj:10)
WG(3)                                2761.95426446942 	(obj:10)
WG(4)                                3579.36576445831 	(obj:10)
WG(5)                                3472.77007794174 	(obj:10)
WG(6)                                2673.40993877551 	(obj:10)
BG(2)                                2673.40993877551 	(obj:10)
BG(4)                                616.926734521282 	(obj:10)
y1(1,1)                              86.7734410579666 	(obj:0)
y1(3,7)                              86.7734391799922 	(obj:0)
y1(3,9)                              86.7734391799922 	(obj:0)
y1(3,11)                             86.7734391799936 	(obj:0)
y1(3,13)                             86.7734391799922 	(obj:0)
y1(4,15)                             1492.42490899994 	(obj:0)
y1(4,17)                             1492.42490899994 	(obj:0)
y1(4,18)                         -3.05473804473877e-008 	(obj:0)
y1(4,19)                             1492.42490899994 	(obj:0)
y1(4,21)                             1492.42490899994 	(obj:0)
y1(4,23)                             1492.42490899994 	(obj:0)
y1(4,25)                             1492.42490899994 	(obj:0)
y1(4,27)                             1492.42490899994 	(obj:0)
y1(4,29)                             1492.42490899994 	(obj:0)
y1(5,31)                             1492.42490899996 	(obj:0)
y1(5,33)                             1492.42490899996 	(obj:0)
y1(5,35)                             1492.42490899996 	(obj:0)
y1(5,37)                             1492.42490899996 	(obj:0)
y1(5,38)                         -1.76222529262304e-007 	(obj:0)
y1(5,39)                             1492.42490899996 	(obj:0)
y1(5,41)                             1492.42490899996 	(obj:0)
y1(5,43)                             1492.42490899996 	(obj:0)
y1(5,45)                             1492.42490899996 	(obj:0)
y1(5,47)                             1492.42490899996 	(obj:0)
y1(5,49)                             1492.42490899996 	(obj:0)
y1(5,51)                             1492.42490899996 	(obj:0)
y1(5,53)                             1492.42490899996 	(obj:0)
y1(5,55)                             1492.42490899996 	(obj:0)
y1(5,57)                             1492.42490899996 	(obj:0)
y1(5,59)                             1492.42490899996 	(obj:0)
y1(5,61)                             1492.42490899996 	(obj:0)
y2(1,2)                              1295.17329728654 	(obj:0)
y2(2,4)                              1385.48851144895 	(obj:0)
y2(2,6)                              1385.48851144895 	(obj:0)
y2(3,8)                              1295.17329924117 	(obj:0)
y2(3,10)                             1295.17329924117 	(obj:0)
y2(3,12)                             1295.17329924117 	(obj:0)
y2(3,14)                             1295.17329924117 	(obj:0)
y2(6,64)                             1385.48851144895 	(obj:0)
y2(6,66)                             1385.48851144895 	(obj:0)
y2(6,68)                             1385.48851144895 	(obj:0)
y2(6,70)                             1385.48851144895 	(obj:0)
y2(6,72)                             1385.48851144895 	(obj:0)
y2(6,74)                             1385.48851144895 	(obj:0)
y2(6,76)                             1385.48851144895 	(obj:0)
y2(6,78)                             1385.48851144895 	(obj:0)
y2(6,80)                             1385.48851144895 	(obj:0)
y2(6,82)                             1385.48851144895 	(obj:0)
y2(6,84)                             1385.48851144895 	(obj:0)
y2(6,86)                             1385.48851144895 	(obj:0)
y2(6,88)                             1385.48851144895 	(obj:0)
y2(6,90)                             1385.48851144895 	(obj:0)
y2(6,92)                             1385.48851144895 	(obj:0)
y2(6,94)                             1385.48851144895 	(obj:0)
y2(6,96)                             1385.48851144895 	(obj:0)
y2(6,98)                             1385.48851144895 	(obj:0)
